NAME : X-n401-k29
COMMENT : "Generated by Uchoa, Pecin, Pessoa, Poggi, Subramanian, and Vidal (2013)"
TYPE : CVRP
DIMENSION : 401
EDGE_WEIGHT_TYPE : EUC_2D
CAPACITY : 745
NODE_COORD_SECTION
1 0 0
2 645 7
3 720 867
4 513 499
5 208 766
6 976 884
7 991 864
8 696 804
9 655 676
10 840 976
11 718 867
12 456 818
13 901 808
14 380 423
15 668 533
16 939 794
17 311 824
18 906 961
19 899 692
20 227 898
21 646 431
22 886 633
23 468 400
24 867 887
25 720 871
26 585 832
27 746 892
28 990 681
29 333 883
30 675 773
31 145 637
32 939 680
33 852 885
34 520 96
35 603 554
36 677 836
37 214 793
38 480 576
39 986 924
40 392 482
41 872 974
42 644 517
43 888 795
44 622 5
45 999 958
46 415 509
47 910 946
48 150 945
49 719 760
50 695 188
51 420 387
52 720 832
53 714 926
54 697 759
55 659 869
56 192 793
57 645 19
58 592 992
59 764 778
60 839 680
61 468 397
62 77 793
63 729 74
64 299 814
65 571 343
66 717 25
67 989 846
68 971 861
69 448 338
70 194 768
71 929 831
72 845 841
73 687 867
74 963 616
75 464 498
76 141 809
77 547 542
78 945 847
79 627 445
80 504 497
81 101 705
82 849 606
83 766 919
84 492 399
85 621 919
86 555 935
87 123 778
88 971 877
89 58 537
90 938 801
91 789 869
92 870 838
93 953 865
94 204 709
95 693 551
96 816 941
97 690 852
98 689 61
99 787 873
100 931 944
101 996 833
102 560 369
103 580 108
104 630 3
105 170 733
106 631 885
107 603 891
108 794 859
109 724 324
110 278 823
111 589 379
112 994 810
113 641 885
114 948 839
115 692 610
116 970 813
117 813 35
118 402 685
119 738 668
120 703 958
121 453 511
122 412 458
123 259 729
124 912 918
125 770 940
126 930 978
127 854 942
128 909 831
129 587 581
130 813 824
131 208 668
132 222 800
133 978 848
134 455 622
135 696 876
136 756 719
137 550 544
138 872 85
139 825 100
140 503 468
141 571 325
142 251 719
143 689 913
144 492 16
145 446 402
146 614 60
147 500 144
148 469 435
149 171 802
150 237 542
151 516 491
152 550 958
153 598 690
154 193 835
155 567 576
156 747 781
157 530 102
158 496 518
159 210 827
160 779 754
161 226 781
162 722 772
163 655 831
164 639 360
165 880 871
166 786 17
167 449 521
168 717 794
169 786 907
170 505 383
171 677 883
172 705 778
173 536 495
174 923 981
175 913 861
176 684 47
177 580 474
178 165 445
179 481 45
180 243 773
181 206 793
182 240 653
183 989 973
184 676 184
185 782 780
186 976 919
187 949 912
188 204 768
189 652 8
190 636 854
191 632 5
192 753 830
193 894 901
194 883 814
195 564 508
196 876 903
197 305 703
198 865 852
199 514 380
200 701 54
201 343 924
202 721 920
203 490 458
204 534 592
205 259 778
206 474 652
207 193 899
208 177 722
209 270 754
210 284 335
211 967 750
212 485 462
213 644 779
214 461 532
215 611 509
216 564 75
217 364 519
218 517 18
219 998 838
220 949 850
221 928 822
222 601 533
223 923 783
224 102 799
225 726 914
226 834 244
227 239 755
228 838 831
229 866 934
230 630 73
231 793 816
232 949 878
233 72 589
234 436 525
235 541 524
236 543 471
237 588 198
238 640 38
239 440 626
240 178 630
241 721 822
242 528 881
243 705 976
244 653 366
245 981 905
246 679 929
247 793 937
248 335 676
249 212 772
250 896 799
251 233 776
252 902 891
253 1000 799
254 328 612
255 169 693
256 45 654
257 868 917
258 152 749
259 233 943
260 316 594
261 408 600
262 945 853
263 509 590
264 843 915
265 471 500
266 775 770
267 303 689
268 579 103
269 935 853
270 659 857
271 426 546
272 932 920
273 996 850
274 237 642
275 840 94
276 706 671
277 190 756
278 163 677
279 734 882
280 403 754
281 669 187
282 947 869
283 783 848
284 747 889
285 710 131
286 851 992
287 157 888
288 964 968
289 550 923
290 320 759
291 881 806
292 941 885
293 333 404
294 990 838
295 171 759
296 647 47
297 296 835
298 655 146
299 243 669
300 475 535
301 197 879
302 565 50
303 985 834
304 784 970
305 546 65
306 144 788
307 870 661
308 508 521
309 669 386
310 845 859
311 268 693
312 860 854
313 768 700
314 196 769
315 245 941
316 411 529
317 535 56
318 327 947
319 789 831
320 145 726
321 708 76
322 808 838
323 657 144
324 686 66
325 514 578
326 894 933
327 909 814
328 579 57
329 938 972
330 435 803
331 730 857
332 819 787
333 861 742
334 251 785
335 497 40
336 969 748
337 990 860
338 701 863
339 195 682
340 610 942
341 103 703
342 802 833
343 260 726
344 221 735
345 777 692
346 984 821
347 912 928
348 475 554
349 959 862
350 646 31
351 991 886
352 735 812
353 707 889
354 333 824
355 824 954
356 197 855
357 487 514
358 570 729
359 653 40
360 850 803
361 630 47
362 563 493
363 216 737
364 689 858
365 688 876
366 883 783
367 334 767
368 847 890
369 966 862
370 524 554
371 181 847
372 886 743
373 241 760
374 995 751
375 663 926
376 660 593
377 807 731
378 124 687
379 282 720
380 704 58
381 950 824
382 825 869
383 795 770
384 150 720
385 664 408
386 222 837
387 930 938
388 313 960
389 819 911
390 906 880
391 180 749
392 914 961
393 357 506
394 649 780
395 975 865
396 687 737
397 258 723
398 543 546
399 660 70
400 650 873
401 541 495
PICKUP_AND_DELIVERY_SECTION
1 0 0 1000000000 0 0 0
2 0 0 1000000000 0 0 42
3 0 0 1000000000 0 0 56
4 0 0 1000000000 0 0 29
5 0 0 1000000000 0 28 0
6 0 0 1000000000 0 0 66
7 0 0 1000000000 0 0 92
8 0 0 1000000000 0 0 99
9 0 0 1000000000 0 97 0
10 0 0 1000000000 0 0 75
11 0 0 1000000000 0 0 52
12 0 0 1000000000 0 0 13
13 0 0 1000000000 0 67 0
14 0 0 1000000000 0 0 69
15 0 0 1000000000 0 0 60
16 0 0 1000000000 0 0 77
17 0 0 1000000000 0 26 0
18 0 0 1000000000 0 0 97
19 0 0 1000000000 0 0 74
20 0 0 1000000000 0 0 26
21 0 0 1000000000 0 28 0
22 0 0 1000000000 0 0 60
23 0 0 1000000000 0 0 74
24 0 0 1000000000 0 0 87
25 0 0 1000000000 0 95 0
26 0 0 1000000000 0 0 59
27 0 0 1000000000 0 0 56
28 0 0 1000000000 0 0 64
29 0 0 1000000000 0 42 0
30 0 0 1000000000 0 0 68
31 0 0 1000000000 0 0 15
32 0 0 1000000000 0 0 59
33 0 0 1000000000 0 62 0
34 0 0 1000000000 0 0 29
35 0 0 1000000000 0 0 66
36 0 0 1000000000 0 0 63
37 0 0 1000000000 0 24 0
38 0 0 1000000000 0 0 9
39 0 0 1000000000 0 0 73
40 0 0 1000000000 0 0 60
41 0 0 1000000000 0 100 0
42 0 0 1000000000 0 0 56
43 0 0 1000000000 0 0 75
44 0 0 1000000000 0 0 37
45 0 0 1000000000 0 100 0
46 0 0 1000000000 0 0 4
47 0 0 1000000000 0 0 100
48 0 0 1000000000 0 0 33
49 0 0 1000000000 0 96 0
50 0 0 1000000000 0 0 28
51 0 0 1000000000 0 0 78
52 0 0 1000000000 0 0 92
53 0 0 1000000000 0 76 0
54 0 0 1000000000 0 0 84
55 0 0 1000000000 0 0 54
56 0 0 1000000000 0 0 3
57 0 0 1000000000 0 14 0
58 0 0 1000000000 0 0 69
59 0 0 1000000000 0 0 99
60 0 0 1000000000 0 0 66
61 0 0 1000000000 0 56 0
62 0 0 1000000000 0 0 31
63 0 0 1000000000 0 0 8
64 0 0 1000000000 0 0 45
65 0 0 1000000000 0 15 0
66 0 0 1000000000 0 0 10
67 0 0 1000000000 0 0 76
68 0 0 1000000000 0 0 98
69 0 0 1000000000 0 99 0
70 0 0 1000000000 0 0 14
71 0 0 1000000000 0 0 75
72 0 0 1000000000 0 0 91
73 0 0 1000000000 0 59 0
74 0 0 1000000000 0 0 51
75 0 0 1000000000 0 0 66
76 0 0 1000000000 0 0 35
77 0 0 1000000000 0 66 0
78 0 0 1000000000 0 0 77
79 0 0 1000000000 0 0 24
80 0 0 1000000000 0 0 40
81 0 0 1000000000 0 28 0
82 0 0 1000000000 0 0 53
83 0 0 1000000000 0 0 81
84 0 0 1000000000 0 0 52
85 0 0 1000000000 0 72 0
86 0 0 1000000000 0 0 79
87 0 0 1000000000 0 0 22
88 0 0 1000000000 0 0 57
89 0 0 1000000000 0 46 0
90 0 0 1000000000 0 0 60
91 0 0 1000000000 0 0 59
92 0 0 1000000000 0 0 87
93 0 0 1000000000 0 88 0
94 0 0 1000000000 0 0 15
95 0 0 1000000000 0 0 71
96 0 0 1000000000 0 0 93
97 0 0 1000000000 0 79 0
98 0 0 1000000000 0 0 5
99 0 0 1000000000 0 0 69
100 0 0 1000000000 0 0 91
101 0 0 1000000000 0 52 0
102 0 0 1000000000 0 0 16
103 0 0 1000000000 0 0 44
104 0 0 1000000000 0 0 46
105 0 0 1000000000 0 43 0
106 0 0 1000000000 0 0 66
107 0 0 1000000000 0 0 73
108 0 0 1000000000 0 0 94
109 0 0 1000000000 0 47 0
110 0 0 1000000000 0 0 16
111 0 0 1000000000 0 0 44
112 0 0 1000000000 0 0 52
113 0 0 1000000000 0 59 0
114 0 0 1000000000 0 0 83
115 0 0 1000000000 0 0 63
116 0 0 1000000000 0 0 100
117 0 0 1000000000 0 29 0
118 0 0 1000000000 0 0 26
119 0 0 1000000000 0 0 67
120 0 0 1000000000 0 0 70
121 0 0 1000000000 0 16 0
122 0 0 1000000000 0 0 78
123 0 0 1000000000 0 0 32
124 0 0 1000000000 0 0 100
125 0 0 1000000000 0 89 0
126 0 0 1000000000 0 0 52
127 0 0 1000000000 0 0 96
128 0 0 1000000000 0 0 52
129 0 0 1000000000 0 88 0
130 0 0 1000000000 0 0 51
131 0 0 1000000000 0 0 4
132 0 0 1000000000 0 0 45
133 0 0 1000000000 0 83 0
134 0 0 1000000000 0 0 46
135 0 0 1000000000 0 0 75
136 0 0 1000000000 0 0 99
137 0 0 1000000000 0 67 0
138 0 0 1000000000 0 0 19
139 0 0 1000000000 0 0 22
140 0 0 1000000000 0 0 4
141 0 0 1000000000 0 23 0
142 0 0 1000000000 0 0 22
143 0 0 1000000000 0 0 70
144 0 0 1000000000 0 0 80
145 0 0 1000000000 0 74 0
146 0 0 1000000000 0 0 10
147 0 0 1000000000 0 0 36
148 0 0 1000000000 0 0 80
149 0 0 1000000000 0 19 0
150 0 0 1000000000 0 0 49
151 0 0 1000000000 0 0 22
152 0 0 1000000000 0 0 79
153 0 0 1000000000 0 59 0
154 0 0 1000000000 0 0 42
155 0 0 1000000000 0 0 53
156 0 0 1000000000 0 0 72
157 0 0 1000000000 0 1 0
158 0 0 1000000000 0 0 10
159 0 0 1000000000 0 0 7
160 0 0 1000000000 0 0 88
161 0 0 1000000000 0 33 0
162 0 0 1000000000 0 0 66
163 0 0 1000000000 0 0 60
164 0 0 1000000000 0 0 29
165 0 0 1000000000 0 52 0
166 0 0 1000000000 0 0 25
167 0 0 1000000000 0 0 49
168 0 0 1000000000 0 0 58
169 0 0 1000000000 0 83 0
170 0 0 1000000000 0 0 25
171 0 0 1000000000 0 0 77
172 0 0 1000000000 0 0 87
173 0 0 1000000000 0 25 0
174 0 0 1000000000 0 0 90
175 0 0 1000000000 0 0 89
176 0 0 1000000000 0 0 32
177 0 0 1000000000 0 18 0
178 0 0 1000000000 0 0 57
179 0 0 1000000000 0 0 61
180 0 0 1000000000 0 0 6
181 0 0 1000000000 0 46 0
182 0 0 1000000000 0 0 48
183 0 0 1000000000 0 0 57
184 0 0 1000000000 0 0 14
185 0 0 1000000000 0 69 0
186 0 0 1000000000 0 0 67
187 0 0 1000000000 0 0 75
188 0 0 1000000000 0 0 27
189 0 0 1000000000 0 34 0
190 0 0 1000000000 0 0 75
191 0 0 1000000000 0 0 9
192 0 0 1000000000 0 0 75
193 0 0 1000000000 0 95 0
194 0 0 1000000000 0 0 92
195 0 0 1000000000 0 0 74
196 0 0 1000000000 0 0 60
197 0 0 1000000000 0 37 0
198 0 0 1000000000 0 0 89
199 0 0 1000000000 0 0 10
200 0 0 1000000000 0 0 19
201 0 0 1000000000 0 1 0
202 0 0 1000000000 0 0 52
203 0 0 1000000000 0 0 81
204 0 0 1000000000 0 0 85
205 0 0 1000000000 0 46 0
206 0 0 1000000000 0 0 35
207 0 0 1000000000 0 0 38
208 0 0 1000000000 0 0 15
209 0 0 1000000000 0 33 0
210 0 0 1000000000 0 0 83
211 0 0 1000000000 0 0 100
212 0 0 1000000000 0 0 87
213 0 0 1000000000 0 60 0
214 0 0 1000000000 0 0 9
215 0 0 1000000000 0 0 68
216 0 0 1000000000 0 0 8
217 0 0 1000000000 0 12 0
218 0 0 1000000000 0 0 12
219 0 0 1000000000 0 0 56
220 0 0 1000000000 0 0 91
221 0 0 1000000000 0 88 0
222 0 0 1000000000 0 0 56
223 0 0 1000000000 0 0 77
224 0 0 1000000000 0 0 37
225 0 0 1000000000 0 99 0
226 0 0 1000000000 0 0 17
227 0 0 1000000000 0 0 28
228 0 0 1000000000 0 0 89
229 0 0 1000000000 0 83 0
230 0 0 1000000000 0 0 50
231 0 0 1000000000 0 0 65
232 0 0 1000000000 0 0 59
233 0 0 1000000000 0 38 0
234 0 0 1000000000 0 0 31
235 0 0 1000000000 0 0 66
236 0 0 1000000000 0 0 49
237 0 0 1000000000 0 11 0
238 0 0 1000000000 0 0 17
239 0 0 1000000000 0 0 6
240 0 0 1000000000 0 0 18
241 0 0 1000000000 0 83 0
242 0 0 1000000000 0 0 60
243 0 0 1000000000 0 0 51
244 0 0 1000000000 0 0 48
245 0 0 1000000000 0 95 0
246 0 0 1000000000 0 0 73
247 0 0 1000000000 0 0 91
248 0 0 1000000000 0 0 26
249 0 0 1000000000 0 30 0
250 0 0 1000000000 0 0 81
251 0 0 1000000000 0 0 34
252 0 0 1000000000 0 0 69
253 0 0 1000000000 0 57 0
254 0 0 1000000000 0 0 39
255 0 0 1000000000 0 0 31
256 0 0 1000000000 0 0 3
257 0 0 1000000000 0 66 0
258 0 0 1000000000 0 0 48
259 0 0 1000000000 0 0 20
260 0 0 1000000000 0 0 15
261 0 0 1000000000 0 32 0
262 0 0 1000000000 0 0 73
263 0 0 1000000000 0 0 90
264 0 0 1000000000 0 0 91
265 0 0 1000000000 0 9 0
266 0 0 1000000000 0 0 92
267 0 0 1000000000 0 0 5
268 0 0 1000000000 0 0 5
269 0 0 1000000000 0 52 0
270 0 0 1000000000 0 0 56
271 0 0 1000000000 0 0 43
272 0 0 1000000000 0 0 86
273 0 0 1000000000 0 71 0
274 0 0 1000000000 0 0 6
275 0 0 1000000000 0 0 47
276 0 0 1000000000 0 0 98
277 0 0 1000000000 0 50 0
278 0 0 1000000000 0 0 9
279 0 0 1000000000 0 0 92
280 0 0 1000000000 0 0 31
281 0 0 1000000000 0 44 0
282 0 0 1000000000 0 0 60
283 0 0 1000000000 0 0 87
284 0 0 1000000000 0 0 76
285 0 0 1000000000 0 25 0
286 0 0 1000000000 0 0 76
287 0 0 1000000000 0 0 9
288 0 0 1000000000 0 0 89
289 0 0 1000000000 0 74 0
290 0 0 1000000000 0 0 18
291 0 0 1000000000 0 0 95
292 0 0 1000000000 0 0 96
293 0 0 1000000000 0 92 0
294 0 0 1000000000 0 0 93
295 0 0 1000000000 0 0 30
296 0 0 1000000000 0 0 34
297 0 0 1000000000 0 6 0
298 0 0 1000000000 0 0 34
299 0 0 1000000000 0 0 31
300 0 0 1000000000 0 0 22
301 0 0 1000000000 0 39 0
302 0 0 1000000000 0 0 10
303 0 0 1000000000 0 0 99
304 0 0 1000000000 0 0 96
305 0 0 1000000000 0 33 0
306 0 0 1000000000 0 0 27
307 0 0 1000000000 0 0 85
308 0 0 1000000000 0 0 77
309 0 0 1000000000 0 18 0
310 0 0 1000000000 0 0 81
311 0 0 1000000000 0 0 24
312 0 0 1000000000 0 0 64
313 0 0 1000000000 0 68 0
314 0 0 1000000000 0 0 1
315 0 0 1000000000 0 0 39
316 0 0 1000000000 0 0 22
317 0 0 1000000000 0 2 0
318 0 0 1000000000 0 0 10
319 0 0 1000000000 0 0 85
320 0 0 1000000000 0 0 6
321 0 0 1000000000 0 33 0
322 0 0 1000000000 0 0 51
323 0 0 1000000000 0 0 46
324 0 0 1000000000 0 0 4
325 0 0 1000000000 0 65 0
326 0 0 1000000000 0 0 56
327 0 0 1000000000 0 0 91
328 0 0 1000000000 0 0 17
329 0 0 1000000000 0 66 0
330 0 0 1000000000 0 0 27
331 0 0 1000000000 0 0 56
332 0 0 1000000000 0 0 64
333 0 0 1000000000 0 53 0
334 0 0 1000000000 0 0 2
335 0 0 1000000000 0 0 52
336 0 0 1000000000 0 0 60
337 0 0 1000000000 0 84 0
338 0 0 1000000000 0 0 70
339 0 0 1000000000 0 0 19
340 0 0 1000000000 0 0 100
341 0 0 1000000000 0 5 0
342 0 0 1000000000 0 0 88
343 0 0 1000000000 0 0 32
344 0 0 1000000000 0 0 15
345 0 0 1000000000 0 74 0
346 0 0 1000000000 0 0 98
347 0 0 1000000000 0 0 79
348 0 0 1000000000 0 0 28
349 0 0 1000000000 0 79 0
350 0 0 1000000000 0 0 38
351 0 0 1000000000 0 0 70
352 0 0 1000000000 0 0 57
353 0 0 1000000000 0 97 0
354 0 0 1000000000 0 0 21
355 0 0 1000000000 0 0 72
356 0 0 1000000000 0 0 48
357 0 0 1000000000 0 28 0
358 0 0 1000000000 0 0 77
359 0 0 1000000000 0 0 40
360 0 0 1000000000 0 0 100
361 0 0 1000000000 0 27 0
362 0 0 1000000000 0 0 20
363 0 0 1000000000 0 0 22
364 0 0 1000000000 0 0 67
365 0 0 1000000000 0 86 0
366 0 0 1000000000 0 0 57
367 0 0 1000000000 0 0 21
368 0 0 1000000000 0 0 67
369 0 0 1000000000 0 96 0
370 0 0 1000000000 0 0 52
371 0 0 1000000000 0 0 2
372 0 0 1000000000 0 0 82
373 0 0 1000000000 0 39 0
374 0 0 1000000000 0 0 63
375 0 0 1000000000 0 0 62
376 0 0 1000000000 0 0 91
377 0 0 1000000000 0 72 0
378 0 0 1000000000 0 0 42
379 0 0 1000000000 0 0 15
380 0 0 1000000000 0 0 6
381 0 0 1000000000 0 85 0
382 0 0 1000000000 0 0 87
383 0 0 1000000000 0 0 55
384 0 0 1000000000 0 0 26
385 0 0 1000000000 0 47 0
386 0 0 1000000000 0 0 5
387 0 0 1000000000 0 0 94
388 0 0 1000000000 0 0 27
389 0 0 1000000000 0 94 0
390 0 0 1000000000 0 0 88
391 0 0 1000000000 0 0 6
392 0 0 1000000000 0 0 66
393 0 0 1000000000 0 34 0
394 0 0 1000000000 0 0 98
395 0 0 1000000000 0 0 83
396 0 0 1000000000 0 0 70
397 0 0 1000000000 0 29 0
398 0 0 1000000000 0 0 81
399 0 0 1000000000 0 0 38
400 0 0 1000000000 0 0 75
401 0 0 1000000000 0 2 0
